\ENCODING=ISO-8859-1
\Problem name: Assignment1_group31_4aeropuertos

Maximize
 obj: 38.9486534534559 x2 + 40.3269153296659 x3 + 56.1261138435294 x4
      + 38.9486534534559 x5 + 41.950902948399 x7 + 44.8573006645469 x8
      + 40.3269153296659 x9 + 41.950902948399 x10 + 40.0989778949123 x12
      + 56.1261138435294 x13 + 44.8573006645469 x14 + 40.0989778949123 x15
      + 38.9486534534559 x18 + 40.3269153296659 x19 + 56.1261138435294 x20
      + 38.9486534534559 x21 + 41.950902948399 x23 + 44.8573006645469 x24
      + 40.3269153296659 x25 + 41.950902948399 x26 + 40.0989778949123 x28
      + 56.1261138435294 x29 + 44.8573006645469 x30 + 40.0989778949123 x31
      - 771.443143852878 x34 - 1155.85037632984 x35 - 1812.7024060364 x36
      - 771.443143852878 x37 - 854.086669310673 x39 - 936.13643999722 x40
      - 1155.85037632984 x41 - 854.086669310673 x42 - 1146.90507948892 x44
      - 1812.7024060364 x45 - 936.13643999722 x46 - 1146.90507948892 x47
      - 1109.79317333802 x50 - 1651.50406315372 x51 - 2458.51729493972 x52
      - 1109.79317333802 x53 - 1211.32961617382 x55 - 1312.13656753337 x56
      - 1651.50406315372 x57 - 1211.32961617382 x58 - 1640.51380570395 x60
      - 2458.51729493972 x61 - 1312.13656753337 x62 - 1640.51380570395 x63
      - 2137.9741667646 x66 - 3175.24733404456 x67 - 4652.84511752317 x68
      - 2137.9741667646 x69 - 2323.88192758837 x71 - 2508.45402878981 x72
      - 3175.24733404456 x73 - 2323.88192758837 x74 - 3155.12476429227 x76
      - 4652.84511752317 x77 - 2508.45402878981 x78 - 3155.12476429227 x79
      - 4252.62969864287 x82 - 6348.4798556075 x83 - 9685.87141176086 x84
      - 4252.62969864287 x85 - 4672.5321904671 x87 - 5089.41788083474 x88
      - 6348.4798556075 x89 - 4672.5321904671 x90 - 6303.02980476804 x92
      - 9685.87141176086 x93 - 5089.41788083474 x94 - 6303.02980476804 x95
      - 15000 x97 - 34000 x98 - 80000 x99 - 190000 x100
Subject To
 Constraint11_1:   x1 + x17 <= 0
 Constraint11_2:   x2 + x18 <= 1361
 Constraint11_3:   x3 + x19 <= 852
 Constraint11_4:   x4 + x20 <= 379
 Constraint12_1:   x5 + x21 <= 1361
 Constraint12_2:   x6 + x22 <= 0
 Constraint12_3:   x7 + x23 <= 323
 Constraint12_4:   x8 + x24 <= 252
 Constraint13_1:   x9 + x25 <= 852
 Constraint13_2:   x10 + x26 <= 323
 Constraint13_3:   x11 + x27 <= 0
 Constraint13_4:   x12 + x28 <= 220
 Constraint14_1:   x13 + x29 <= 379
 Constraint14_2:   x14 + x30 <= 252
 Constraint14_3:   x15 + x31 <= 220
 Constraint14_4:   x16 + x32 <= 0
 Constraint21_1:   x1 <= 0
 Constraint21_2:   x2 <= 0
 Constraint21_3:   x3 <= 852
 Constraint21_4:   x4 <= 379
 Constraint22_1:   x5 <= 0
 Constraint22_2:   x6 <= 0
 Constraint22_3:   x7 <= 0
 Constraint22_4:   x8 <= 0
 Constraint23_1:   x9 <= 852
 Constraint23_2:   x10 <= 0
 Constraint23_3:   x11 <= 0
 Constraint23_4:   x12 <= 220
 Constraint24_1:   x13 <= 379
 Constraint24_2:   x14 <= 0
 Constraint24_3:   x15 <= 220
 Constraint24_4:   x16 <= 0
 Constraint31_1:   x17 - 33.75 x33 - 52.5 x49 - 112.5 x65 - 240 x81 <= 0
 Constraint31_2:   x1 + x2 + x3 + x4 + x18 - 33.75 x34 - 52.5 x50 - 112.5 x66
                   - 240 x82 <= 0
 Constraint31_3:   x19 - 33.75 x35 - 52.5 x51 - 112.5 x67 - 240 x83 <= 0
 Constraint31_4:   x20 - 33.75 x36 - 52.5 x52 - 112.5 x68 - 240 x84 <= 0
 Constraint32_1:   x1 + x5 + x9 + x13 + x21 - 33.75 x37 - 52.5 x53 - 112.5 x69
                   - 240 x85 <= 0
 Constraint32_2:   x2 + x5 + 2 x6 + x7 + x8 + x10 + x14 + x22 - 33.75 x38
                   - 52.5 x54 - 112.5 x70 - 240 x86 <= 0
 Constraint32_3:   x3 + x7 + x11 + x15 + x23 - 33.75 x39 - 52.5 x55 - 112.5 x71
                   - 240 x87 <= 0
 Constraint32_4:   x4 + x8 + x12 + x16 + x24 - 33.75 x40 - 52.5 x56 - 112.5 x72
                   - 240 x88 <= 0
 Constraint33_1:   x25 - 33.75 x41 - 52.5 x57 - 112.5 x73 - 240 x89 <= 0
 Constraint33_2:   x9 + x10 + x11 + x12 + x26 - 33.75 x42 - 52.5 x58
                   - 112.5 x74 - 240 x90 <= 0
 Constraint33_3:   x27 - 33.75 x43 - 52.5 x59 - 112.5 x75 - 240 x91 <= 0
 Constraint33_4:   x28 - 33.75 x44 - 52.5 x60 - 112.5 x76 - 240 x92 <= 0
 Constraint34_1:   x29 - 33.75 x45 - 52.5 x61 - 112.5 x77 - 240 x93 <= 0
 Constraint34_2:   x13 + x14 + x15 + x16 + x30 - 33.75 x46 - 52.5 x62
                   - 112.5 x78 - 240 x94 <= 0
 Constraint34_3:   x31 - 33.75 x47 - 52.5 x63 - 112.5 x79 - 240 x95 <= 0
 Constraint34_4:   x32 - 33.75 x48 - 52.5 x64 - 112.5 x80 - 240 x96 <= 0
 Constraint41_1:   x34 + x35 + x36 - x37 - x41 - x45  = 0
 Constraint41_2:   - x34 + x37 + x39 + x40 - x42 - x46  = 0
 Constraint41_3:   - x35 - x39 + x41 + x42 + x44 - x47  = 0
 Constraint41_4:   - x36 - x40 - x44 + x45 + x46 + x47  = 0
 Constraint42_1:   x50 + x51 + x52 - x53 - x57 - x61  = 0
 Constraint42_2:   - x50 + x53 + x55 + x56 - x58 - x62  = 0
 Constraint42_3:   - x51 - x55 + x57 + x58 + x60 - x63  = 0
 Constraint42_4:   - x52 - x56 - x60 + x61 + x62 + x63  = 0
 Constraint43_1:   x66 + x67 + x68 - x69 - x73 - x77  = 0
 Constraint43_2:   - x66 + x69 + x71 + x72 - x74 - x78  = 0
 Constraint43_3:   - x67 - x71 + x73 + x74 + x76 - x79  = 0
 Constraint43_4:   - x68 - x72 - x76 + x77 + x78 + x79  = 0
 Constraint44_1:   x82 + x83 + x84 - x85 - x89 - x93  = 0
 Constraint44_2:   - x82 + x85 + x87 + x88 - x90 - x94  = 0
 Constraint44_3:   - x83 - x87 + x89 + x90 + x92 - x95  = 0
 Constraint44_4:   - x84 - x88 - x92 + x93 + x94 + x95  = 0
 Constraint51:     1.46454658155648 x34 + 1.09021103418753 x35
                   + 1.60714599985376 x36 + 1.04787991488981 x37
                   + 1.14079348720782 x39 + 1.23303951930932 x40
                   + 1.09021103418753 x41 + 1.55746015387449 x42
                   + 1.08317118882479 x44 + 1.60714599985376 x45
                   + 1.64970618597599 x46 + 1.08317118882479 x47 - 70 x97 <= 0
 Constraint52:     1.59004140632853 x50 + 1.0351008969144 x51
                   + 1.38182556900761 x52 + 1.0067080729952 x53
                   + 1.06902815198899 x55 + 1.13090049059365 x56
                   + 1.0351008969144 x57 + 1.65236148532232 x58
                   + 1.030379049415 x60 + 1.38182556900761 x61
                   + 1.71423382392698 x62 + 1.030379049415 x63 - 70 x98 <= 0
 Constraint53:     1.90843210179145 x66 + 1.18582282604291 x67
                   + 1.52031015676812 x68 + 1.15843210179145 x69
                   + 1.21855264858545 x71 + 1.27824125759231 x72
                   + 1.18582282604291 x73 + 1.96855264858545 x74
                   + 1.18126763198467 x76 + 1.52031015676812 x77
                   + 2.02824125759231 x78 + 1.18126763198467 x79 - 70 x99 <= 0
 Constraint54:     2.3990428580721 x82 + 1.42580391050169 x83
                   + 1.75260187730219 x84 + 1.3990428580721 x85
                   + 1.45778132333062 x87 + 1.51609778040628 x88
                   + 1.42580391050169 x89 + 2.45778132333062 x90
                   + 1.42135343354824 x92 + 1.75260187730219 x93
                   + 2.51609778040628 x94 + 1.42135343354824 x95 - 70 x100 <= 0
 Constraint61_1_2: x34 <= 1000000
 Constraint61_1_3: x35 <= 1000000
 Constraint61_1_4: x36 <= 1000000
 Constraint61_2_1: x37 <= 1000000
 Constraint61_2_3: x39 <= 1000000
 Constraint61_2_4: x40 <= 1000000
 Constraint61_3_1: x41 <= 1000000
 Constraint61_3_2: x42 <= 1000000
 Constraint61_3_4: x44 <= 1000000
 Constraint61_4_1: x45 <= 1000000
 Constraint61_4_2: x46 <= 1000000
 Constraint61_4_3: x47 <= 1000000
 Constraint62_1_2: x50 <= 1000000
 Constraint62_1_3: x51 <= 1000000
 Constraint62_1_4: x52 <= 1000000
 Constraint62_2_1: x53 <= 1000000
 Constraint62_2_3: x55 <= 1000000
 Constraint62_2_4: x56 <= 1000000
 Constraint62_3_1: x57 <= 1000000
 Constraint62_3_2: x58 <= 1000000
 Constraint62_3_4: x60 <= 1000000
 Constraint62_4_1: x61 <= 1000000
 Constraint62_4_2: x62 <= 1000000
 Constraint62_4_3: x63 <= 1000000
 Constraint63_1_2: x66 <= 1000000
 Constraint63_1_3: x67 <= 1000000
 Constraint63_1_4: x68 <= 1000000
 Constraint63_2_1: x69 <= 1000000
 Constraint63_2_3: x71 <= 1000000
 Constraint63_2_4: x72 <= 1000000
 Constraint63_3_1: x73 <= 1000000
 Constraint63_3_2: x74 <= 1000000
 Constraint63_3_4: x76 <= 1000000
 Constraint63_4_1: x77 <= 1000000
 Constraint63_4_2: x78 <= 1000000
 Constraint63_4_3: x79 <= 1000000
 Constraint64_1_2: x82 <= 1000000
 Constraint64_1_3: x83 <= 1000000
 Constraint64_1_4: x84 <= 1000000
 Constraint64_2_1: x85 <= 1000000
 Constraint64_2_3: x87 <= 1000000
 Constraint64_2_4: x88 <= 1000000
 Constraint64_3_1: x89 <= 1000000
 Constraint64_3_2: x90 <= 1000000
 Constraint64_3_4: x92 <= 1000000
 Constraint64_4_1: x93 <= 1000000
 Constraint64_4_2: x94 <= 1000000
 Constraint64_4_3: x95 <= 1000000
 Constraint71_1_2: x34 <= 1000000
 Constraint71_1_3: x35 <= 1000000
 Constraint71_1_4: x36 <= 1000000
 Constraint71_2_1: x37 <= 1000000
 Constraint71_2_3: x39 <= 1000000
 Constraint71_2_4: x40 <= 1000000
 Constraint71_3_1: x41 <= 1000000
 Constraint71_3_2: x42 <= 1000000
 Constraint71_3_4: x44 <= 1000000
 Constraint71_4_1: x45 <= 1000000
 Constraint71_4_2: x46 <= 1000000
 Constraint71_4_3: x47 <= 1000000
 Constraint72_1_2: x50 <= 1000000
 Constraint72_1_3: x51 <= 1000000
 Constraint72_1_4: x52 <= 1000000
 Constraint72_2_1: x53 <= 1000000
 Constraint72_2_3: x55 <= 1000000
 Constraint72_2_4: x56 <= 1000000
 Constraint72_3_1: x57 <= 1000000
 Constraint72_3_2: x58 <= 1000000
 Constraint72_3_4: x60 <= 1000000
 Constraint72_4_1: x61 <= 1000000
 Constraint72_4_2: x62 <= 1000000
 Constraint72_4_3: x63 <= 1000000
 Constraint73_1_2: x66 <= 1000000
 Constraint73_1_3: x67 <= 1000000
 Constraint73_1_4: x68 <= 1000000
 Constraint73_2_1: x69 <= 1000000
 Constraint73_2_3: x71 <= 1000000
 Constraint73_2_4: x72 <= 1000000
 Constraint73_3_1: x73 <= 1000000
 Constraint73_3_2: x74 <= 1000000
 Constraint73_3_4: x76 <= 1000000
 Constraint73_4_1: x77 <= 1000000
 Constraint73_4_2: x78 <= 1000000
 Constraint73_4_3: x79 <= 1000000
 Constraint74_1_2: x82 <= 1000000
 Constraint74_1_3: x83 <= 1000000
 Constraint74_1_4: x84 <= 1000000
 Constraint74_2_1: x85 <= 1000000
 Constraint74_2_3: x87 <= 1000000
 Constraint74_2_4: x88 <= 1000000
 Constraint74_3_1: x89 <= 1000000
 Constraint74_3_2: x90 <= 1000000
 Constraint74_3_4: x92 <= 1000000
 Constraint74_4_1: x93 <= 1000000
 Constraint74_4_2: x94 <= 1000000
 Constraint74_4_3: x95 <= 1000000
Bounds
      x1 >= 0
      x2 >= 0
      x3 >= 0
      x4 >= 0
      x5 >= 0
      x6 >= 0
      x7 >= 0
      x8 >= 0
      x9 >= 0
      x10 >= 0
      x11 >= 0
      x12 >= 0
      x13 >= 0
      x14 >= 0
      x15 >= 0
      x16 >= 0
      x17 >= 0
      x18 >= 0
      x19 >= 0
      x20 >= 0
      x21 >= 0
      x22 >= 0
      x23 >= 0
      x24 >= 0
      x25 >= 0
      x26 >= 0
      x27 >= 0
      x28 >= 0
      x29 >= 0
      x30 >= 0
      x31 >= 0
      x32 >= 0
      x33 >= 0
      x34 >= 0
      x35 >= 0
      x36 >= 0
      x37 >= 0
      x38 >= 0
      x39 >= 0
      x40 >= 0
      x41 >= 0
      x42 >= 0
      x43 >= 0
      x44 >= 0
      x45 >= 0
      x46 >= 0
      x47 >= 0
      x48 >= 0
      x49 >= 0
      x50 >= 0
      x51 >= 0
      x52 >= 0
      x53 >= 0
      x54 >= 0
      x55 >= 0
      x56 >= 0
      x57 >= 0
      x58 >= 0
      x59 >= 0
      x60 >= 0
      x61 >= 0
      x62 >= 0
      x63 >= 0
      x64 >= 0
      x65 >= 0
      x66 >= 0
      x67 >= 0
      x68 >= 0
      x69 >= 0
      x70 >= 0
      x71 >= 0
      x72 >= 0
      x73 >= 0
      x74 >= 0
      x75 >= 0
      x76 >= 0
      x77 >= 0
      x78 >= 0
      x79 >= 0
      x80 >= 0
      x81 >= 0
      x82 >= 0
      x83 >= 0
      x84 >= 0
      x85 >= 0
      x86 >= 0
      x87 >= 0
      x88 >= 0
      x89 >= 0
      x90 >= 0
      x91 >= 0
      x92 >= 0
      x93 >= 0
      x94 >= 0
      x95 >= 0
      x96 >= 0
      x97 >= 0
      x98 >= 0
      x99 >= 0
      x100 >= 0
Generals
 x1  x2  x3  x4  x5  x6  x7  x8  x9  x10  x11  x12  x13  x14  x15  x16  x17 
 x18  x19  x20  x21  x22  x23  x24  x25  x26  x27  x28  x29  x30  x31  x32 
 x33  x34  x35  x36  x37  x38  x39  x40  x41  x42  x43  x44  x45  x46  x47 
 x48  x49  x50  x51  x52  x53  x54  x55  x56  x57  x58  x59  x60  x61  x62 
 x63  x64  x65  x66  x67  x68  x69  x70  x71  x72  x73  x74  x75  x76  x77 
 x78  x79  x80  x81  x82  x83  x84  x85  x86  x87  x88  x89  x90  x91  x92 
 x93  x94  x95  x96  x97  x98  x99  x100 
End
